language ESSENCE' 1.0

letting C_FunctionND be
        [[0, 0, 0, 0, 0, 0, 0, 0, 0, 0, 0, 0, 0, 0, 0, 0, 0, 0, 0, 0, 0; int(0..20)],
         [1, 0, 0, 0, 0, 0, 0, 0, 0, 0, 0, 0, 0, 0, 0, 0, 0, 0, 0, 0, 0; int(0..20)],
         [1, 0, 0, 0, 0, 0, 0, 0, 0, 0, 0, 0, 0, 0, 0, 0, 0, 0, 0, 0, 0; int(0..20)],
         [1, 0, 0, 0, 0, 0, 0, 0, 0, 0, 0, 0, 0, 0, 0, 0, 0, 0, 0, 0, 0; int(0..20)],
         [1, 0, 0, 0, 0, 0, 0, 0, 0, 0, 0, 0, 0, 0, 0, 0, 0, 0, 0, 0, 0; int(0..20)],
         [1, 0, 0, 0, 0, 0, 0, 0, 0, 0, 0, 0, 0, 0, 0, 0, 0, 0, 0, 0, 0; int(0..20)],
         [1, 0, 0, 0, 0, 0, 0, 0, 0, 0, 0, 0, 0, 0, 0, 0, 0, 0, 0, 0, 0; int(0..20)],
         [1, 0, 0, 0, 0, 0, 0, 0, 0, 0, 0, 0, 0, 0, 0, 0, 0, 0, 0, 0, 0; int(0..20)],
         [1, 0, 0, 0, 0, 0, 0, 0, 0, 0, 0, 0, 0, 0, 0, 0, 0, 0, 0, 0, 0; int(0..20)],
         [0, 1, 1, 0, 0, 0, 0, 0, 1, 0, 0, 0, 0, 0, 0, 0, 0, 0, 0, 0, 0; int(0..20)],
         [0, 1, 0, 1, 0, 0, 0, 1, 0, 0, 0, 0, 0, 0, 0, 0, 0, 0, 0, 0, 0; int(0..20)],
         [0, 1, 0, 0, 1, 0, 0, 0, 0, 0, 0, 0, 0, 0, 0, 0, 0, 0, 0, 0, 0; int(0..20)],
         [0, 1, 0, 0, 0, 1, 1, 0, 0, 0, 0, 0, 0, 0, 0, 0, 0, 0, 0, 0, 0; int(0..20)],
         [0, 0, 1, 1, 1, 1, 0, 0, 0, 0, 0, 0, 0, 0, 0, 0, 0, 0, 0, 0, 0; int(0..20)],
         [0, 0, 1, 0, 0, 0, 1, 0, 0, 0, 0, 0, 0, 0, 0, 0, 0, 0, 0, 0, 0; int(0..20)],
         [0, 0, 1, 0, 0, 0, 0, 1, 0, 0, 0, 0, 0, 0, 0, 0, 0, 0, 0, 0, 0; int(0..20)],
         [0, 0, 0, 1, 0, 0, 1, 0, 1, 0, 0, 0, 0, 0, 0, 0, 0, 0, 0, 0, 0; int(0..20)],
         [0, 0, 0, 0, 1, 0, 1, 1, 0, 0, 0, 0, 0, 0, 0, 0, 0, 0, 0, 0, 0; int(0..20)],
         [0, 0, 0, 0, 1, 0, 0, 0, 1, 0, 0, 0, 0, 0, 0, 0, 0, 0, 0, 0, 0; int(0..20)],
         [0, 0, 0, 0, 0, 1, 0, 1, 1, 0, 0, 0, 0, 0, 0, 0, 0, 0, 0, 0, 0; int(0..20)],
         [0, 0, 0, 0, 0, 0, 0, 0, 0, 1, 1, 1, 1, 1, 1, 1, 1, 1, 1, 1, 0; int(0..20)];
             int(0..20)]
$ Visualisation for C_FunctionND
$ 0 0 0 0 0 0 0 0 0 0 0 0 0 0 0 0 0 0 0 0 0
$ 1 0 0 0 0 0 0 0 0 0 0 0 0 0 0 0 0 0 0 0 0
$ 1 0 0 0 0 0 0 0 0 0 0 0 0 0 0 0 0 0 0 0 0
$ 1 0 0 0 0 0 0 0 0 0 0 0 0 0 0 0 0 0 0 0 0
$ 1 0 0 0 0 0 0 0 0 0 0 0 0 0 0 0 0 0 0 0 0
$ 1 0 0 0 0 0 0 0 0 0 0 0 0 0 0 0 0 0 0 0 0
$ 1 0 0 0 0 0 0 0 0 0 0 0 0 0 0 0 0 0 0 0 0
$ 1 0 0 0 0 0 0 0 0 0 0 0 0 0 0 0 0 0 0 0 0
$ 1 0 0 0 0 0 0 0 0 0 0 0 0 0 0 0 0 0 0 0 0
$ 0 1 1 0 0 0 0 0 1 0 0 0 0 0 0 0 0 0 0 0 0
$ 0 1 0 1 0 0 0 1 0 0 0 0 0 0 0 0 0 0 0 0 0
$ 0 1 0 0 1 0 0 0 0 0 0 0 0 0 0 0 0 0 0 0 0
$ 0 1 0 0 0 1 1 0 0 0 0 0 0 0 0 0 0 0 0 0 0
$ 0 0 1 1 1 1 0 0 0 0 0 0 0 0 0 0 0 0 0 0 0
$ 0 0 1 0 0 0 1 0 0 0 0 0 0 0 0 0 0 0 0 0 0
$ 0 0 1 0 0 0 0 1 0 0 0 0 0 0 0 0 0 0 0 0 0
$ 0 0 0 1 0 0 1 0 1 0 0 0 0 0 0 0 0 0 0 0 0
$ 0 0 0 0 1 0 1 1 0 0 0 0 0 0 0 0 0 0 0 0 0
$ 0 0 0 0 1 0 0 0 1 0 0 0 0 0 0 0 0 0 0 0 0
$ 0 0 0 0 0 1 0 1 1 0 0 0 0 0 0 0 0 0 0 0 0
$ 0 0 0 0 0 0 0 0 0 1 1 1 1 1 1 1 1 1 1 1 0

letting J_FunctionND be
        [[0, 1, 2, 3, 4, 5, 6, 7, 8, 9, 10, 11, 12, 13, 14, 15, 16, 17, 18, 19, 20; int(0..20)],
         [1, 1, 9, 10, 11, 12, 12, 10, 9, 9, 10, 11, 12, 20, 20, 20, 20, 20, 20, 20, 20; int(0..20)],
         [2, 9, 2, 13, 13, 13, 14, 15, 9, 9, 20, 20, 20, 13, 14, 15, 20, 20, 20, 20, 20; int(0..20)],
         [3, 10, 13, 3, 13, 13, 16, 10, 16, 20, 10, 20, 20, 13, 20, 20, 16, 20, 20, 20, 20; int(0..20)],
         [4, 11, 13, 13, 4, 13, 17, 17, 18, 20, 20, 11, 20, 13, 20, 20, 20, 17, 18, 20, 20; int(0..20)],
         [5, 12, 13, 13, 13, 5, 12, 19, 19, 20, 20, 20, 12, 13, 20, 20, 20, 20, 20, 19, 20; int(0..20)],
         [6, 12, 14, 16, 17, 12, 6, 17, 16, 20, 20, 20, 12, 20, 14, 20, 16, 17, 20, 20, 20; int(0..20)],
         [7, 10, 15, 10, 17, 19, 17, 7, 19, 20, 10, 20, 20, 20, 20, 15, 20, 17, 20, 19, 20; int(0..20)],
         [8, 9, 9, 16, 18, 19, 16, 19, 8, 9, 20, 20, 20, 20, 20, 20, 16, 20, 18, 19, 20; int(0..20)],
         [9, 9, 9, 20, 20, 20, 20, 20, 9, 9, 20, 20, 20, 20, 20, 20, 20, 20, 20, 20, 20; int(0..20)],
         [10, 10, 20, 10, 20, 20, 20, 10, 20, 20, 10, 20, 20, 20, 20, 20, 20, 20, 20, 20, 20; int(0..20)],
         [11, 11, 20, 20, 11, 20, 20, 20, 20, 20, 20, 11, 20, 20, 20, 20, 20, 20, 20, 20, 20; int(0..20)],
         [12, 12, 20, 20, 20, 12, 12, 20, 20, 20, 20, 20, 12, 20, 20, 20, 20, 20, 20, 20, 20; int(0..20)],
         [13, 20, 13, 13, 13, 13, 20, 20, 20, 20, 20, 20, 20, 13, 20, 20, 20, 20, 20, 20, 20; int(0..20)],
         [14, 20, 14, 20, 20, 20, 14, 20, 20, 20, 20, 20, 20, 20, 14, 20, 20, 20, 20, 20, 20; int(0..20)],
         [15, 20, 15, 20, 20, 20, 20, 15, 20, 20, 20, 20, 20, 20, 20, 15, 20, 20, 20, 20, 20; int(0..20)],
         [16, 20, 20, 16, 20, 20, 16, 20, 16, 20, 20, 20, 20, 20, 20, 20, 16, 20, 20, 20, 20; int(0..20)],
         [17, 20, 20, 20, 17, 20, 17, 17, 20, 20, 20, 20, 20, 20, 20, 20, 20, 17, 20, 20, 20; int(0..20)],
         [18, 20, 20, 20, 18, 20, 20, 20, 18, 20, 20, 20, 20, 20, 20, 20, 20, 20, 18, 20, 20; int(0..20)],
         [19, 20, 20, 20, 20, 19, 20, 19, 19, 20, 20, 20, 20, 20, 20, 20, 20, 20, 20, 19, 20; int(0..20)],
         [20, 20, 20, 20, 20, 20, 20, 20, 20, 20, 20, 20, 20, 20, 20, 20, 20, 20, 20, 20, 20; int(0..20)];
             int(0..20)]
$ Visualisation for J_FunctionND
$  0  1  2  3  4  5  6  7  8  9 10 11 12 13 14 15 16 17 18 19 20
$  1  1  9 10 11 12 12 10  9  9 10 11 12 20 20 20 20 20 20 20 20
$  2  9  2 13 13 13 14 15  9  9 20 20 20 13 14 15 20 20 20 20 20
$  3 10 13  3 13 13 16 10 16 20 10 20 20 13 20 20 16 20 20 20 20
$  4 11 13 13  4 13 17 17 18 20 20 11 20 13 20 20 20 17 18 20 20
$  5 12 13 13 13  5 12 19 19 20 20 20 12 13 20 20 20 20 20 19 20
$  6 12 14 16 17 12  6 17 16 20 20 20 12 20 14 20 16 17 20 20 20
$  7 10 15 10 17 19 17  7 19 20 10 20 20 20 20 15 20 17 20 19 20
$  8  9  9 16 18 19 16 19  8  9 20 20 20 20 20 20 16 20 18 19 20
$  9  9  9 20 20 20 20 20  9  9 20 20 20 20 20 20 20 20 20 20 20
$ 10 10 20 10 20 20 20 10 20 20 10 20 20 20 20 20 20 20 20 20 20
$ 11 11 20 20 11 20 20 20 20 20 20 11 20 20 20 20 20 20 20 20 20
$ 12 12 20 20 20 12 12 20 20 20 20 20 12 20 20 20 20 20 20 20 20
$ 13 20 13 13 13 13 20 20 20 20 20 20 20 13 20 20 20 20 20 20 20
$ 14 20 14 20 20 20 14 20 20 20 20 20 20 20 14 20 20 20 20 20 20
$ 15 20 15 20 20 20 20 15 20 20 20 20 20 20 20 15 20 20 20 20 20
$ 16 20 20 16 20 20 16 20 16 20 20 20 20 20 20 20 16 20 20 20 20
$ 17 20 20 20 17 20 17 17 20 20 20 20 20 20 20 20 20 17 20 20 20
$ 18 20 20 20 18 20 20 20 18 20 20 20 20 20 20 20 20 20 18 20 20
$ 19 20 20 20 20 19 20 19 19 20 20 20 20 20 20 20 20 20 20 19 20
$ 20 20 20 20 20 20 20 20 20 20 20 20 20 20 20 20 20 20 20 20 20

letting M_FunctionND be
        [[0, 0, 0, 0, 0, 0, 0, 0, 0, 0, 0, 0, 0, 0, 0, 0, 0, 0, 0, 0, 0; int(0..20)],
         [0, 1, 0, 0, 0, 0, 0, 0, 0, 1, 1, 1, 1, 0, 0, 0, 0, 0, 0, 0, 1; int(0..20)],
         [0, 0, 2, 0, 0, 0, 0, 0, 0, 2, 0, 0, 0, 2, 2, 2, 0, 0, 0, 0, 2; int(0..20)],
         [0, 0, 0, 3, 0, 0, 0, 0, 0, 0, 3, 0, 0, 3, 0, 0, 3, 0, 0, 0, 3; int(0..20)],
         [0, 0, 0, 0, 4, 0, 0, 0, 0, 0, 0, 4, 0, 4, 0, 0, 0, 4, 4, 0, 4; int(0..20)],
         [0, 0, 0, 0, 0, 5, 0, 0, 0, 0, 0, 0, 5, 5, 0, 0, 0, 0, 0, 5, 5; int(0..20)],
         [0, 0, 0, 0, 0, 0, 6, 0, 0, 0, 0, 0, 6, 0, 6, 0, 6, 6, 0, 0, 6; int(0..20)],
         [0, 0, 0, 0, 0, 0, 0, 7, 0, 0, 7, 0, 0, 0, 0, 7, 0, 7, 0, 7, 7; int(0..20)],
         [0, 0, 0, 0, 0, 0, 0, 0, 8, 8, 0, 0, 0, 0, 0, 0, 8, 0, 8, 8, 8; int(0..20)],
         [0, 1, 2, 0, 0, 0, 0, 0, 8, 9, 1, 1, 1, 2, 2, 2, 8, 0, 8, 8, 9; int(0..20)],
         [0, 1, 0, 3, 0, 0, 0, 7, 0, 1, 10, 1, 1, 3, 0, 7, 3, 7, 0, 7, 10; int(0..20)],
         [0, 1, 0, 0, 4, 0, 0, 0, 0, 1, 1, 11, 1, 4, 0, 0, 0, 4, 4, 0, 11; int(0..20)],
         [0, 1, 0, 0, 0, 5, 6, 0, 0, 1, 1, 1, 12, 5, 6, 0, 6, 6, 0, 5, 12; int(0..20)],
         [0, 0, 2, 3, 4, 5, 0, 0, 0, 2, 3, 4, 5, 13, 2, 2, 3, 4, 4, 5, 13; int(0..20)],
         [0, 0, 2, 0, 0, 0, 6, 0, 0, 2, 0, 0, 6, 2, 14, 2, 6, 6, 0, 0, 14; int(0..20)],
         [0, 0, 2, 0, 0, 0, 0, 7, 0, 2, 7, 0, 0, 2, 2, 15, 0, 7, 0, 7, 15; int(0..20)],
         [0, 0, 0, 3, 0, 0, 6, 0, 8, 8, 3, 0, 6, 3, 6, 0, 16, 6, 8, 8, 16; int(0..20)],
         [0, 0, 0, 0, 4, 0, 6, 7, 0, 0, 7, 4, 6, 4, 6, 7, 6, 17, 4, 7, 17; int(0..20)],
         [0, 0, 0, 0, 4, 0, 0, 0, 8, 8, 0, 4, 0, 4, 0, 0, 8, 4, 18, 8, 18; int(0..20)],
         [0, 0, 0, 0, 0, 5, 0, 7, 8, 8, 7, 0, 5, 5, 0, 7, 8, 7, 8, 19, 19; int(0..20)],
         [0, 1, 2, 3, 4, 5, 6, 7, 8, 9, 10, 11, 12, 13, 14, 15, 16, 17, 18, 19, 20; int(0..20)];
             int(0..20)]
$ Visualisation for M_FunctionND
$  0  0  0  0  0  0  0  0  0  0  0  0  0  0  0  0  0  0  0  0  0
$  0  1  0  0  0  0  0  0  0  1  1  1  1  0  0  0  0  0  0  0  1
$  0  0  2  0  0  0  0  0  0  2  0  0  0  2  2  2  0  0  0  0  2
$  0  0  0  3  0  0  0  0  0  0  3  0  0  3  0  0  3  0  0  0  3
$  0  0  0  0  4  0  0  0  0  0  0  4  0  4  0  0  0  4  4  0  4
$  0  0  0  0  0  5  0  0  0  0  0  0  5  5  0  0  0  0  0  5  5
$  0  0  0  0  0  0  6  0  0  0  0  0  6  0  6  0  6  6  0  0  6
$  0  0  0  0  0  0  0  7  0  0  7  0  0  0  0  7  0  7  0  7  7
$  0  0  0  0  0  0  0  0  8  8  0  0  0  0  0  0  8  0  8  8  8
$  0  1  2  0  0  0  0  0  8  9  1  1  1  2  2  2  8  0  8  8  9
$  0  1  0  3  0  0  0  7  0  1 10  1  1  3  0  7  3  7  0  7 10
$  0  1  0  0  4  0  0  0  0  1  1 11  1  4  0  0  0  4  4  0 11
$  0  1  0  0  0  5  6  0  0  1  1  1 12  5  6  0  6  6  0  5 12
$  0  0  2  3  4  5  0  0  0  2  3  4  5 13  2  2  3  4  4  5 13
$  0  0  2  0  0  0  6  0  0  2  0  0  6  2 14  2  6  6  0  0 14
$  0  0  2  0  0  0  0  7  0  2  7  0  0  2  2 15  0  7  0  7 15
$  0  0  0  3  0  0  6  0  8  8  3  0  6  3  6  0 16  6  8  8 16
$  0  0  0  0  4  0  6  7  0  0  7  4  6  4  6  7  6 17  4  7 17
$  0  0  0  0  4  0  0  0  8  8  0  4  0  4  0  0  8  4 18  8 18
$  0  0  0  0  0  5  0  7  8  8  7  0  5  5  0  7  8  7  8 19 19
$  0  1  2  3  4  5  6  7  8  9 10 11 12 13 14 15 16 17 18 19 20

letting R_Function1D be [0, 1, 1, 1, 1, 1, 1, 1, 1, 2, 2, 2, 2, 2, 2, 2, 2, 2, 2, 2, 3; int(0..20)]
